DIMACS2
40 128 147 154 73 139 151 112 116 41 16 43 77 142 48 10 36 146 110 39 90 30 53 132 96 158 42 34 149 11 49 13 55 72 145 95 38 124 6 1 47
p edge 160 627
e 0 96 29.0
e 0 68 1.0
e 0 79 1.0
e 0 43 26.0
e 1 136 42.0
e 1 13 25.0
e 1 144 47.0
e 1 24 5.0
e 2 104 1.0
e 2 30 3.0
e 2 40 1.0
e 2 149 36.0
e 3 65 1.0
e 3 43 20.0
e 3 93 1.0
e 3 79 1.0
e 4 93 1.0
e 4 86 1.0
e 4 134 2.0
e 4 81 1.0
e 5 117 1.0
e 5 107 1.0
e 5 145 30.0
e 5 138 1.0
e 6 25 26.0
e 6 23 29.0
e 6 88 3.0
e 6 130 38.0
e 7 5 1.0
e 7 12 2.0
e 7 98 1.0
e 7 136 1.0
e 8 76 1.0
e 8 42 19.0
e 8 117 3.0
e 8 62 1.0
e 9 106 2.0
e 9 121 1.0
e 9 140 1.0
e 9 5 1.0
e 10 113 40.0
e 10 130 36.0
e 10 106 48.0
e 10 121 45.0
e 11 59 6.0
e 11 24 41.0
e 11 38 1.0
e 11 156 38.0
e 12 27 2.0
e 12 149 3.0
e 12 57 1.0
e 13 31 7.0
e 13 136 43.0
e 13 63 46.0
e 13 55 39.0
e 14 79 1.0
e 14 125 1.0
e 14 22 1.0
e 14 107 1.0
e 15 55 26.0
e 15 86 2.0
e 15 108 1.0
e 15 35 2.0
e 16 52 48.0
e 16 96 37.0
e 16 143 33.0
e 16 88 29.0
e 17 134 2.0
e 17 27 1.0
e 17 43 12.0
e 17 128 1.0
e 18 81 1.0
e 18 130 1.0
e 18 69 2.0
e 18 104 1.0
e 19 33 2.0
e 19 107 2.0
e 19 131 2.0
e 19 55 42.0
e 20 84 1.0
e 20 85 2.0
e 20 97 1.0
e 20 82 1.0
e 21 78 1.0
e 21 129 1.0
e 21 48 38.0
e 21 20 1.0
e 22 154 47.0
e 22 100 1.0
e 22 27 1.0
e 22 10 10.0
e 23 133 1.0
e 23 150 2.0
e 23 16 42.0
e 23 103 1.0
e 24 42 39.0
e 24 89 1.0
e 24 127 1.0
e 24 12 1.0
e 25 84 1.0
e 25 95 13.0
e 25 83 1.0
e 25 150 1.0
e 26 20 1.0
e 26 117 1.0
e 26 47 26.0
e 26 55 10.0
e 27 40 1.0
e 27 37 2.0
e 27 61 1.0
e 27 89 1.0
e 28 24 1.0
e 28 48 25.0
e 28 119 1.0
e 28 69 1.0
e 29 24 2.0
e 29 123 2.0
e 29 72 27.0
e 29 74 1.0
e 30 154 21.0
e 30 105 28.0
e 30 123 27.0
e 30 107 5.0
e 31 64 1.0
e 31 68 1.0
e 31 85 2.0
e 31 41 28.0
e 32 114 1.0
e 32 23 1.0
e 32 116 38.0
e 33 42 2.0
e 33 11 42.0
e 33 127 1.0
e 33 6 40.0
e 34 104 12.0
e 34 131 3.0
e 34 14 45.0
e 34 20 2.0
e 35 102 1.0
e 35 26 1.0
e 35 100 1.0
e 35 25 1.0
e 36 32 29.0
e 36 64 20.0
e 36 86 6.0
e 36 144 42.0
e 37 88 1.0
e 37 20 1.0
e 37 90 40.0
e 37 12 1.0
e 38 78 11.0
e 38 62 35.0
e 38 34 45.0
e 38 113 37.0
e 39 116 25.0
e 39 53 15.0
e 39 59 32.0
e 39 62 39.0
e 40 75 1.0
e 40 77 40.0
e 40 96 49.0
e 40 20 1.0
e 41 53 15.0
e 41 120 18.0
e 41 51 9.0
e 41 118 2.0
e 42 139 43.0
e 42 143 26.0
e 42 146 47.0
e 42 157 30.0
e 43 90 35.0
e 43 41 40.0
e 43 122 17.0
e 43 103 16.0
e 44 106 1.0
e 44 79 1.0
e 44 142 16.0
e 44 42 35.0
e 45 156 1.0
e 45 130 1.0
e 45 79 1.0
e 45 51 1.0
e 46 95 14.0
e 46 1 20.0
e 46 17 1.0
e 46 37 1.0
e 47 101 23.0
e 47 113 19.0
e 47 57 6.0
e 47 63 38.0
e 48 141 26.0
e 48 129 11.0
e 48 14 28.0
e 48 79 1.0
e 49 124 6.0
e 49 59 19.0
e 49 3 32.0
e 49 80 21.0
e 50 72 16.0
e 50 68 1.0
e 50 49 20.0
e 50 119 1.0
e 51 136 1.0
e 51 139 1.0
e 51 117 1.0
e 51 59 1.0
e 52 22 1.0
e 52 44 1.0
e 52 11 38.0
e 52 92 1.0
e 53 55 17.0
e 53 57 46.0
e 53 146 16.0
e 54 58 1.0
e 54 91 2.0
e 54 124 21.0
e 54 114 1.0
e 55 7 34.0
e 55 51 6.0
e 55 148 25.0
e 55 69 15.0
e 56 22 1.0
e 56 102 1.0
e 56 9 1.0
e 56 128 11.0
e 57 113 1.0
e 57 154 16.0
e 57 112 29.0
e 57 7 1.0
e 58 0 1.0
e 58 48 8.0
e 58 6 38.0
e 58 24 1.0
e 59 58 1.0
e 59 109 1.0
e 59 60 1.0
e 59 128 1.0
e 60 11 14.0
e 60 116 13.0
e 60 117 1.0
e 60 15 1.0
e 61 72 18.0
e 61 79 1.0
e 61 95 5.0
e 61 16 1.0
e 62 121 1.0
e 62 81 2.0
e 62 11 33.0
e 62 89 1.0
e 63 114 1.0
e 63 103 1.0
e 63 38 38.0
e 63 151 29.0
e 64 122 1.0
e 64 119 1.0
e 64 110 4.0
e 64 156 1.0
e 65 142 23.0
e 65 9 1.0
e 65 145 21.0
e 65 73 9.0
e 66 19 1.0
e 66 8 1.0
e 66 151 38.0
e 66 13 8.0
e 67 135 1.0
e 67 114 2.0
e 67 141 2.0
e 67 13 7.0
e 68 129 1.0
e 68 141 1.0
e 68 62 1.0
e 68 8 2.0
e 69 37 1.0
e 69 130 1.0
e 69 121 1.0
e 69 101 1.0
e 70 5 3.0
e 70 92 1.0
e 70 30 39.0
e 70 8 1.0
e 71 101 1.0
e 71 85 2.0
e 71 1 13.0
e 71 29 3.0
e 72 129 23.0
e 72 156 40.0
e 72 47 38.0
e 72 125 6.0
e 73 9 11.0
e 73 112 10.0
e 73 150 45.0
e 73 76 27.0
e 74 115 1.0
e 74 75 1.0
e 74 30 12.0
e 74 145 6.0
e 75 32 1.0
e 75 23 1.0
e 75 108 1.0
e 75 58 1.0
e 76 12 3.0
e 76 105 1.0
e 76 67 1.0
e 76 134 1.0
e 77 127 2.0
e 77 137 1.0
e 77 20 42.0
e 77 95 16.0
e 78 146 32.0
e 78 5 1.0
e 78 7 1.0
e 78 133 1.0
e 79 87 1.0
e 79 85 1.0
e 79 130 1.0
e 79 53 32.0
e 80 90 19.0
e 80 1 4.0
e 80 134 1.0
e 80 54 1.0
e 81 149 45.0
e 81 23 1.0
e 81 32 1.0
e 82 8 1.0
e 82 71 1.0
e 82 123 1.0
e 82 17 1.0
e 83 19 1.0
e 83 122 1.0
e 83 21 1.0
e 83 29 2.0
e 84 140 1.0
e 84 86 1.0
e 84 135 1.0
e 84 83 1.0
e 85 107 1.0
e 85 78 2.0
e 85 82 1.0
e 85 41 29.0
e 86 9 2.0
e 86 122 1.0
e 86 126 1.0
e 86 151 41.0
e 87 20 1.0
e 87 9 2.0
e 87 48 49.0
e 87 110 34.0
e 88 139 41.0
e 88 103 1.0
e 88 3 1.0
e 88 85 1.0
e 89 97 1.0
e 89 108 1.0
e 89 131 1.0
e 89 33 1.0
e 90 133 24.0
e 90 140 30.0
e 90 110 5.0
e 90 157 28.0
e 91 146 33.0
e 91 135 1.0
e 91 110 30.0
e 91 81 2.0
e 92 141 1.0
e 92 103 1.0
e 92 101 1.0
e 92 80 1.0
e 93 89 1.0
e 93 53 28.0
e 93 124 12.0
e 93 152 1.0
e 94 127 1.0
e 94 81 1.0
e 94 136 2.0
e 94 36 41.0
e 95 1 6.0
e 95 87 24.0
e 95 108 20.0
e 95 34 28.0
e 96 147 9.0
e 96 91 18.0
e 96 52 6.0
e 96 6 38.0
e 97 113 1.0
e 97 104 1.0
e 97 36 27.0
e 97 77 40.0
e 98 97 1.0
e 98 55 15.0
e 98 30 19.0
e 98 107 1.0
e 99 52 1.0
e 99 87 1.0
e 99 32 1.0
e 99 155 1.0
e 100 101 3.0
e 100 98 2.0
e 100 142 23.0
e 100 70 2.0
e 101 115 1.0
e 101 99 1.0
e 101 122 1.0
e 101 135 1.0
e 102 113 1.0
e 102 72 24.0
e 102 23 1.0
e 102 101 1.0
e 103 146 22.0
e 103 116 42.0
e 103 106 1.0
e 104 123 1.0
e 104 118 2.0
e 104 60 1.0
e 104 76 1.0
e 105 42 46.0
e 105 39 10.0
e 105 116 37.0
e 105 22 1.0
e 106 78 1.0
e 106 8 1.0
e 106 87 1.0
e 106 112 1.0
e 107 23 1.0
e 107 68 2.0
e 107 40 1.0
e 108 51 1.0
e 108 4 1.0
e 108 49 11.0
e 108 116 21.0
e 109 9 2.0
e 109 74 1.0
e 109 19 1.0
e 109 141 1.0
e 110 16 37.0
e 110 10 24.0
e 110 60 22.0
e 110 13 35.0
e 111 102 3.0
e 111 141 1.0
e 111 96 32.0
e 111 64 1.0
e 112 70 15.0
e 112 156 38.0
e 112 97 15.0
e 112 119 7.0
e 113 143 1.0
e 113 46 1.0
e 113 94 1.0
e 114 14 1.0
e 114 5 2.0
e 114 108 1.0
e 114 121 1.0
e 115 29 2.0
e 115 156 1.0
e 115 46 2.0
e 116 153 21.0
e 116 48 7.0
e 116 128 48.0
e 116 132 21.0
e 117 157 1.0
e 117 29 1.0
e 117 114 1.0
e 117 134 2.0
e 118 10 2.0
e 118 155 1.0
e 118 107 2.0
e 118 105 1.0
e 119 94 3.0
e 119 5 2.0
e 119 10 43.0
e 119 20 1.0
e 120 82 1.0
e 120 118 1.0
e 120 106 1.0
e 120 147 26.0
e 121 14 1.0
e 121 42 47.0
e 121 146 2.0
e 121 25 1.0
e 122 70 1.0
e 122 11 30.0
e 122 100 1.0
e 123 34 43.0
e 123 74 1.0
e 123 148 1.0
e 123 16 38.0
e 124 151 44.0
e 124 30 16.0
e 124 122 19.0
e 124 34 1.0
e 125 20 1.0
e 125 96 22.0
e 125 132 19.0
e 125 13 18.0
e 126 28 2.0
e 126 27 1.0
e 126 11 39.0
e 126 105 1.0
e 127 30 1.0
e 127 88 1.0
e 127 46 1.0
e 127 49 38.0
e 128 87 2.0
e 128 65 44.0
e 128 35 43.0
e 128 92 35.0
e 129 42 35.0
e 129 132 19.0
e 129 11 3.0
e 130 30 14.0
e 130 73 49.0
e 130 92 1.0
e 130 51 1.0
e 131 61 1.0
e 131 157 1.0
e 131 113 1.0
e 131 26 2.0
e 132 124 34.0
e 132 25 22.0
e 132 31 40.0
e 132 158 33.0
e 133 43 38.0
e 133 50 1.0
e 133 30 23.0
e 133 68 1.0
e 134 75 1.0
e 134 70 3.0
e 134 111 2.0
e 134 49 18.0
e 135 36 34.0
e 135 156 1.0
e 135 72 19.0
e 136 154 32.0
e 136 137 1.0
e 136 111 1.0
e 136 28 1.0
e 137 75 1.0
e 137 128 43.0
e 137 151 34.0
e 137 123 1.0
e 138 9 2.0
e 138 15 1.0
e 138 10 23.0
e 138 20 1.0
e 139 39 21.0
e 139 143 8.0
e 139 16 16.0
e 140 10 8.0
e 140 41 13.0
e 140 96 30.0
e 140 67 1.0
e 141 64 1.0
e 141 20 1.0
e 141 47 34.0
e 141 145 27.0
e 142 60 36.0
e 142 76 48.0
e 142 92 16.0
e 142 59 4.0
e 143 98 1.0
e 143 138 1.0
e 143 39 35.0
e 143 107 1.0
e 144 102 1.0
e 144 25 1.0
e 144 134 2.0
e 144 85 2.0
e 145 16 29.0
e 145 62 6.0
e 145 20 1.0
e 145 35 35.0
e 146 63 41.0
e 146 39 39.0
e 146 59 41.0
e 146 38 23.0
e 147 116 43.0
e 147 127 34.0
e 147 70 40.0
e 147 115 26.0
e 148 52 1.0
e 148 89 1.0
e 148 146 18.0
e 148 96 8.0
e 149 87 28.0
e 149 116 18.0
e 149 40 37.0
e 149 102 5.0
e 150 111 2.0
e 150 83 2.0
e 150 138 1.0
e 150 157 1.0
e 151 144 15.0
e 151 142 46.0
e 151 121 17.0
e 151 13 48.0
e 152 38 7.0
e 152 79 1.0
e 152 41 27.0
e 152 99 1.0
e 153 55 36.0
e 153 28 2.0
e 153 150 1.0
e 153 4 1.0
e 154 65 1.0
e 154 78 4.0
e 154 62 21.0
e 154 101 15.0
e 155 136 1.0
e 155 74 1.0
e 155 27 1.0
e 156 24 1.0
e 156 50 1.0
e 156 55 46.0
e 156 30 19.0
e 157 120 1.0
e 157 51 1.0
e 157 99 1.0
e 157 102 1.0
e 158 7 24.0
e 158 105 21.0
e 158 53 33.0
e 158 64 33.0
e 159 18 1.0
e 159 61 1.0
e 159 59 2.0
e 159 151 45.0
